(set-logic HORN)
(set-info :source |
    Benchmark: C_VC
    Output by Princess (http://www.philipp.ruemmer.org/princess.shtml)
|)
(set-info :status unsat)
(declare-heap Heap Addr HeapObject
 defObj
 ((HeapObject 0) (node 0) (list 0)) (
  (
   (O_Int (getInt Int))
   (O_UInt (getUInt Int))
   (O_Addr (getAddr Addr))
   (O_node (getnode node))
   (O_list (getlist list))
   (defObj)
  )
  (
   (node (next Addr) (value Int))
  )
  (
   (list (slist Addr) (next Addr))
  )
))
(declare-fun inv_main101 (Heap Addr Addr) Bool)
(declare-fun inv_main112 (Heap Addr Addr Addr) Bool)
(declare-fun inv_main114 (Heap Addr Addr Addr Addr) Bool)
(declare-fun inv_main115 (Heap Addr Addr Addr Addr) Bool)
(declare-fun inv_main119 (Heap Addr Addr Addr Addr) Bool)
(declare-fun inv_main120 (Heap Addr Addr Addr Addr) Bool)
(declare-fun inv_main121 (Heap Addr Addr Addr Addr Addr Addr Addr) Bool)
(declare-fun inv_main124 (Heap Addr Addr Addr Addr Addr Addr Addr) Bool)
(declare-fun inv_main127 (Heap Addr Addr Addr Addr Addr Addr Addr Int) Bool)
(declare-fun inv_main13 (Heap Addr Addr) Bool)
(declare-fun inv_main130 (Heap Addr Addr Addr Addr Addr Addr Addr Int) Bool)
(declare-fun inv_main134 (Heap Addr Addr Addr Addr Addr Addr Addr Int Int Addr) Bool)
(declare-fun inv_main135 (Heap Addr Addr Addr Addr Addr Addr Addr Int Int Addr) Bool)
(declare-fun inv_main137 (Heap Addr Addr Addr Addr Addr Addr Addr Int Int Addr) Bool)
(declare-fun inv_main138 (Heap Addr Addr Addr Addr Addr Addr Addr Int Int Addr) Bool)
(declare-fun inv_main144 (Heap Addr Addr Addr Addr Addr Addr Addr Int Int Addr) Bool)
(declare-fun inv_main145 (Heap Addr Addr Addr Addr Addr Addr Addr Int Int Addr) Bool)
(declare-fun inv_main147 (Heap Addr Addr Addr Addr Addr Addr Addr Int Int Addr) Bool)
(declare-fun inv_main148 (Heap Addr Addr Addr Addr Addr Addr Addr Int Int Addr) Bool)
(declare-fun inv_main15 (Heap Addr Addr Addr) Bool)
(declare-fun inv_main152 (Heap Addr Addr Addr Addr) Bool)
(declare-fun inv_main155 (Heap Addr) Bool)
(declare-fun inv_main159 (Heap Addr Addr) Bool)
(declare-fun inv_main163 (Heap Addr Addr) Bool)
(declare-fun inv_main167 (Heap Addr Addr) Bool)
(declare-fun inv_main172 (Heap Addr Addr) Bool)
(declare-fun inv_main18 (Heap Addr Addr Addr) Bool)
(declare-fun inv_main181 (Heap Addr Addr) Bool)
(declare-fun inv_main185 (Heap Addr Addr Addr) Bool)
(declare-fun inv_main186 (Heap Addr Addr Addr) Bool)
(declare-fun inv_main187 (Heap Addr Addr Addr) Bool)
(declare-fun inv_main189 (Heap Addr Addr Addr) Bool)
(declare-fun inv_main195 (Heap Addr Addr Addr) Bool)
(declare-fun inv_main2 (Heap) Bool)
(declare-fun inv_main202 (Heap Addr Addr) Bool)
(declare-fun inv_main23 (Heap Addr) Bool)
(declare-fun inv_main3 (Heap Addr) Bool)
(declare-fun inv_main31 (Heap Addr Addr) Bool)
(declare-fun inv_main36 (Heap Addr Addr) Bool)
(declare-fun inv_main38 (Heap Addr Addr) Bool)
(declare-fun inv_main39 (Heap Addr Addr) Bool)
(declare-fun inv_main43 (Heap Addr Addr) Bool)
(declare-fun inv_main47 (Heap Addr Addr) Bool)
(declare-fun inv_main51 (Heap Addr Addr) Bool)
(declare-fun inv_main55 (Heap Addr Addr) Bool)
(declare-fun inv_main59 (Heap Addr Addr) Bool)
(declare-fun inv_main67 (Heap Addr Addr) Bool)
(declare-fun inv_main72 (Heap Addr Addr) Bool)
(declare-fun inv_main76 (Heap Addr Addr) Bool)
(declare-fun inv_main8 (Heap Addr Addr) Bool)
(declare-fun inv_main80 (Heap Addr Addr) Bool)
(declare-fun inv_main85 (Heap Addr Addr) Bool)
(declare-fun inv_main89 (Heap Addr Addr) Bool)
(declare-fun inv_main93 (Heap Addr Addr) Bool)
(assert (inv_main2 emptyHeap))
(assert (forall ((var0 Addr) (var1 Addr) (var2 Addr) (var3 Heap) (var4 Addr) (var5 Addr) (var6 Heap)) (or (not (and (inv_main38 var6 var5 var4) (and (is-O_list (read var6 var4)) (and (and (and (= var3 var6) (= var2 var5)) (= var1 var4)) (= var0 (next (getlist (read var6 var4)))))))) (inv_main36 var3 var2 var0))))
(assert (forall ((var0 Int) (var1 Addr) (var2 Heap)) (or (not (and (inv_main3 var2 var1) (and (not (= var1 nullAddr)) (and (not (= var1 nullAddr)) (= var0 0))))) (inv_main36 var2 var1 var1))))
(assert (forall ((var0 Addr) (var1 Addr) (var2 Heap) (var3 Addr) (var4 Addr) (var5 Addr) (var6 Heap)) (or (not (and (inv_main167 var6 var5 var4) (and (and (= var3 nullAddr) (is-O_list (read var6 var4))) (and (and (and (= var2 var6) (= var1 var5)) (= var0 var4)) (= var3 (slist (getlist (read var6 var4)))))))) (inv_main181 var2 var1 var0))))
(assert (forall ((var0 Addr) (var1 Addr) (var2 Heap)) (or (not (and (inv_main36 var2 var1 var0) (and (not (= var0 nullAddr)) (and (is-O_list (read var2 var0)) (not (= (next (getlist (read var2 var0))) nullAddr)))))) (inv_main39 var2 var1 var0))))
(assert (forall ((var0 Addr) (var1 Addr) (var2 Heap) (var3 Addr) (var4 Addr) (var5 Addr) (var6 Heap)) (or (not (and (inv_main55 var6 var5 var4) (and (and (not (= var3 nullAddr)) (and (is-O_list (read var6 var4)) (is-O_node (read var6 (slist (getlist (read var6 var4))))))) (and (and (and (= var2 var6) (= var1 var5)) (= var0 var4)) (= var3 (next (getnode (read var6 (slist (getlist (read var6 var4))))))))))) (inv_main67 var2 var1 var0))))
(assert (forall ((var0 Int) (var1 Addr) (var2 Addr) (var3 Addr) (var4 Addr) (var5 Addr) (var6 Addr) (var7 Addr) (var8 Heap)) (or (not (and (inv_main130 var8 var7 var6 var5 var4 var3 var2 var1 var0) (not (= var0 0)))) (inv_main134 var8 var7 var6 var5 var4 var3 var2 var1 5 6 var2))))
(assert (forall ((var0 Addr) (var1 Addr) (var2 Heap)) (or (not (and (inv_main39 var2 var1 var0) (and (is-O_list (read var2 var0)) (= (next (getlist (read var2 var0))) nullAddr)))) (inv_main51 var2 var1 var0))))
(assert (forall ((var0 Addr) (var1 Addr) (var2 Addr) (var3 Heap) (var4 Addr) (var5 Addr) (var6 Addr) (var7 Heap)) (or (not (and (inv_main167 var7 var6 var5) (and (and (not (= var4 nullAddr)) (is-O_list (read var7 var5))) (and (and (and (= var3 var7) (= var2 var6)) (= var1 var5)) (= var4 (slist (getlist (read var7 var5)))))))) (inv_main185 var3 var2 var1 var0))))
(assert (forall ((var0 Addr) (var1 Addr) (var2 Addr) (var3 Addr) (var4 Addr) (var5 Addr) (var6 Addr) (var7 Heap)) (or (not (and (inv_main121 var7 var6 var5 var4 var3 var2 var1 var0) (and (= var1 nullAddr) (= var0 nullAddr)))) (inv_main119 var7 var6 var5 var4 var3))))
(assert (forall ((var0 Heap)) (or (not (inv_main2 var0)) (inv_main3 var0 nullAddr))))
(assert (forall ((var0 Addr) (var1 Addr) (var2 Addr) (var3 Heap) (var4 Addr) (var5 Addr) (var6 Addr) (var7 Heap)) (or (not (and (inv_main18 var7 var6 var5 var4) (and (and (is-O_list (read var7 var4)) (is-O_list (read var7 var4))) (and (and (and (= var3 (write var7 var4 (O_list (list (slist (getlist (read var7 var4))) var6)))) (= var2 var6)) (= var1 var5)) (= var0 var4))))) (inv_main3 var3 var0))))
(assert (forall ((var0 Int) (var1 Addr) (var2 Addr) (var3 Addr) (var4 Addr) (var5 Addr) (var6 Addr) (var7 Addr) (var8 Heap)) (or (not (and (inv_main130 var8 var7 var6 var5 var4 var3 var2 var1 var0) (= var0 0))) (inv_main144 var8 var7 var6 var5 var4 var3 var2 var1 5 7 var1))))
(assert (forall ((var0 Addr) (var1 Addr) (var2 Heap) (var3 Addr) (var4 Addr) (var5 Addr) (var6 Heap)) (or (not (and (inv_main159 var6 var5 var4) (and (and (= var3 nullAddr) (is-O_list (read var6 var4))) (and (and (and (= var2 var6) (= var1 var5)) (= var0 var4)) (= var3 (next (getlist (read var6 var4)))))))) (inv_main167 var2 var1 var0))))
(assert (forall ((var0 Int) (var1 Addr) (var2 Heap)) (or (not (and (inv_main3 var2 var1) (and (= var1 nullAddr) (and (not (= var1 nullAddr)) (= var0 0))))) (inv_main31 var2 var1 var1))))
(assert (forall ((var0 Addr) (var1 Addr) (var2 Addr) (var3 Addr) (var4 Heap) (var5 Addr) (var6 Addr) (var7 Addr) (var8 Addr) (var9 Heap)) (or (not (and (inv_main119 var9 var8 var7 var6 var5) (and (and (is-O_list (read var9 var7)) (is-O_list (read var9 var7))) (and (and (and (and (= var4 (write var9 var7 (O_list (list (slist (getlist (read var9 var7))) var6)))) (= var3 var8)) (= var2 var7)) (= var1 var6)) (= var0 var5))))) (inv_main152 var4 var3 var2 var2 var0))))
(assert (forall ((var0 Addr) (var1 Addr) (var2 Addr) (var3 Addr) (var4 Addr) (var5 Addr) (var6 Addr) (var7 Heap)) (or (not (and (inv_main124 var7 var6 var5 var4 var3 var2 var1 var0) (and (and (not (= var0 nullAddr)) (not (= var1 nullAddr))) (is-O_node (read var7 var1))))) (inv_main127 var7 var6 var5 var4 var3 var2 var1 var0 (value (getnode (read var7 var1)))))))
(assert (forall ((var0 Addr) (var1 Addr) (var2 Heap)) (or (not (and (inv_main47 var2 var1 var0) (and (is-O_list (read var2 var0)) (= (slist (getlist (read var2 var0))) nullAddr)))) (inv_main59 var2 var1 var0))))
(assert (forall ((var0 Addr) (var1 Int) (var2 Int) (var3 Addr) (var4 Addr) (var5 Addr) (var6 Addr) (var7 Addr) (var8 Addr) (var9 Addr) (var10 Heap)) (or (not (and (inv_main135 var10 var9 var8 var7 var6 var5 var4 var3 var2 var1 var0) (and (is-O_node (read var10 var0)) (is-O_node (read var10 var0))))) (inv_main137 (write var10 var0 (O_node (node nullAddr (value (getnode (read var10 var0)))))) var9 var8 var7 var6 var5 var4 var3 var2 var1 var0))))
(assert (forall ((var0 Addr) (var1 Addr) (var2 Addr) (var3 Addr) (var4 Addr) (var5 Addr) (var6 Addr) (var7 Heap)) (or (not (and (inv_main121 var7 var6 var5 var4 var3 var2 var1 var0) (or (not (= var1 nullAddr)) (not (= var0 nullAddr))))) (inv_main124 var7 var6 var5 var4 var3 var2 var1 var0))))
(assert (forall ((var0 Addr) (var1 Int) (var2 Int) (var3 Addr) (var4 Addr) (var5 Addr) (var6 Addr) (var7 Addr) (var8 Addr) (var9 Addr) (var10 Heap)) (or (not (and (inv_main145 var10 var9 var8 var7 var6 var5 var4 var3 var2 var1 var0) (and (is-O_node (read var10 var0)) (is-O_node (read var10 var0))))) (inv_main147 (write var10 var0 (O_node (node nullAddr (value (getnode (read var10 var0)))))) var9 var8 var7 var6 var5 var4 var3 var2 var1 var0))))
(assert (forall ((var0 Addr) (var1 Heap)) (or (not (and (inv_main23 var1 var0) (and (= var0 nullAddr) (and (is-O_list (read var1 var0)) (= (next (getlist (read var1 var0))) nullAddr))))) (inv_main163 var1 var0 var0))))
(assert (forall ((var0 Addr) (var1 Addr) (var2 Addr) (var3 Heap)) (or (not (and (inv_main186 var3 var2 var1 var0) (and (is-O_node (read var3 var0)) (not (= (next (getnode (read var3 var0))) nullAddr))))) (inv_main195 var3 var2 var1 var0))))
(assert (forall ((var0 Addr) (var1 Addr) (var2 Heap) (var3 Addr) (var4 Addr) (var5 Addr) (var6 Heap)) (or (not (and (inv_main89 var6 var5 var4) (and (and (not (= var3 nullAddr)) (and (is-O_list (read var6 var4)) (is-O_node (read var6 (slist (getlist (read var6 var4))))))) (and (and (and (= var2 var6) (= var1 var5)) (= var0 var4)) (= var3 (next (getnode (read var6 (slist (getlist (read var6 var4))))))))))) (inv_main101 var2 var1 var0))))
(assert (forall ((var0 Addr) (var1 Addr) (var2 Addr) (var3 Addr) (var4 Heap) (var5 Addr) (var6 Addr) (var7 Addr) (var8 Addr) (var9 Heap)) (or (not (and (inv_main115 var9 var8 var7 var6 var5) (and (and (is-O_list (read var9 var7)) (is-O_list (read var9 var7))) (and (and (and (and (= var4 (write var9 var7 (O_list (list (slist (getlist (read var9 var7))) var6)))) (= var3 var8)) (= var2 var7)) (= var1 var6)) (= var0 var5))))) (inv_main23 var4 var2))))
(assert (forall ((var0 Addr) (var1 Addr) (var2 Heap) (var3 Addr) (var4 Addr) (var5 Addr) (var6 Addr) (var7 Addr) (var8 Heap) (var9 Addr) (var10 Addr) (var11 Addr) (var12 Addr) (var13 Addr) (var14 Heap)) (or (not (and (inv_main152 var14 var13 var12 var11 var10) (and (and (= var9 nullAddr) (and (is-O_list (read var14 var10)) (and (and (and (and (and (= var8 var14) (= var7 var13)) (= var6 var12)) (= var5 var11)) (= var4 var10)) (= var3 (next (getlist (read var14 var10))))))) (and (and (and (= var2 (write var8 var4 defObj)) (= var1 var7)) (= var9 var3)) (= var0 var5))))) (inv_main23 var2 var0))))
(assert (forall ((var0 Addr) (var1 Addr) (var2 Heap) (var3 Addr) (var4 Addr) (var5 Addr) (var6 Heap)) (or (not (and (inv_main89 var6 var5 var4) (and (and (= var3 nullAddr) (and (is-O_list (read var6 var4)) (is-O_node (read var6 (slist (getlist (read var6 var4))))))) (and (and (and (= var2 var6) (= var1 var5)) (= var0 var4)) (= var3 (next (getnode (read var6 (slist (getlist (read var6 var4))))))))))) (inv_main23 var2 var1))))
(assert (forall ((var0 Addr) (var1 Addr) (var2 Heap) (var3 Addr) (var4 Addr) (var5 Heap)) (or (not (and (inv_main23 var5 var4) (and (and (= var3 nullAddr) (and (and (and (= var2 var5) (= var1 var4)) (= var3 var4)) (= var0 nullAddr))) (and (is-O_list (read var5 var4)) (not (= (next (getlist (read var5 var4))) nullAddr)))))) (inv_main23 var2 var0))))
(assert (forall ((var0 Addr) (var1 Addr) (var2 Heap)) (or (not (and (inv_main39 var2 var1 var0) (and (is-O_list (read var2 var0)) (not (= (next (getlist (read var2 var0))) nullAddr))))) (inv_main47 var2 var1 var0))))
(assert (forall ((var0 Addr) (var1 Addr) (var2 Int) (var3 Int) (var4 Addr) (var5 Addr) (var6 Addr) (var7 Addr) (var8 Addr) (var9 Addr) (var10 Addr) (var11 Heap) (var12 Addr) (var13 Int) (var14 Int) (var15 Addr) (var16 Addr) (var17 Addr) (var18 Addr) (var19 Addr) (var20 Addr) (var21 Addr) (var22 Heap)) (or (not (and (inv_main144 var22 var21 var20 var19 var18 var17 var16 var15 var14 var13 var12) (and (is-O_node (read var22 var12)) (and (and (and (and (and (and (and (and (and (and (and (= var11 var22) (= var10 var21)) (= var9 var20)) (= var8 var19)) (= var7 var18)) (= var6 var17)) (= var5 var16)) (= var4 var15)) (= var3 var14)) (= var2 var13)) (= var1 var12)) (= var0 (next (getnode (read var22 var12)))))))) (inv_main145 var11 var10 var9 var8 var7 var6 var5 var0 var3 var2 var1))))
(assert (forall ((var0 Addr) (var1 Addr) (var2 Addr) (var3 Heap)) (or (not (and (inv_main187 var3 var2 var1 var0) (and (is-O_node (read var3 var0)) (not (= (next (getnode (read var3 var0))) nullAddr))))) (inv_main189 var3 var2 var1 var0))))
(assert (forall ((var0 Addr) (var1 Addr) (var2 Heap) (var3 Addr) (var4 Addr) (var5 Addr) (var6 Heap)) (or (not (and (inv_main55 var6 var5 var4) (and (and (= var3 nullAddr) (and (is-O_list (read var6 var4)) (is-O_node (read var6 (slist (getlist (read var6 var4))))))) (and (and (and (= var2 var6) (= var1 var5)) (= var0 var4)) (= var3 (next (getnode (read var6 (slist (getlist (read var6 var4))))))))))) (inv_main38 var2 var1 var0))))
(assert (forall ((var0 Int) (var1 Addr) (var2 node) (var3 Heap) (var4 Addr) (var5 Addr) (var6 Heap)) (or (not (and (inv_main3 var6 var5) (and (and (not (= var4 nullAddr)) (and (and (= var3 (newHeap (alloc var6 (O_node var2)))) (= var1 var5)) (= var4 (newAddr (alloc var6 (O_node var2)))))) (not (= var0 0))))) (inv_main8 var3 var1 var4))))
(assert (forall ((var0 Addr) (var1 Addr) (var2 Heap) (var3 Addr) (var4 Addr) (var5 Addr) (var6 Heap)) (or (not (and (inv_main159 var6 var5 var4) (and (and (not (= var3 nullAddr)) (is-O_list (read var6 var4))) (and (and (and (= var2 var6) (= var1 var5)) (= var0 var4)) (= var3 (next (getlist (read var6 var4)))))))) (inv_main172 var2 var1 var0))))
(assert (forall ((var0 Int) (var1 Addr) (var2 Addr) (var3 Addr) (var4 Addr) (var5 list) (var6 Heap) (var7 Heap) (var8 Addr) (var9 Addr) (var10 Addr) (var11 Heap)) (or (not (and (inv_main13 var11 var10 var9) (and (and (and (not (= var8 nullAddr)) (and (and (and (= var7 (newHeap (alloc var6 (O_list var5)))) (= var4 var3)) (= var2 var1)) (= var8 (newAddr (alloc var6 (O_list var5)))))) (and (is-O_node (read var11 var9)) (is-O_node (read var11 var9)))) (and (and (= var6 (write var11 var9 (O_node (node (next (getnode (read var11 var9))) var0)))) (= var3 var10)) (= var1 var9))))) (inv_main15 var7 var4 var2 var8))))
(assert (forall ((var0 Addr) (var1 Addr) (var2 Addr) (var3 Heap)) (or (not (and (inv_main186 var3 var2 var1 var0) (and (is-O_node (read var3 var0)) (= (next (getnode (read var3 var0))) nullAddr)))) (inv_main155 var3 var2))))
(assert (forall ((var0 Addr) (var1 Int) (var2 Int) (var3 Addr) (var4 Addr) (var5 Addr) (var6 Addr) (var7 Addr) (var8 Addr) (var9 Addr) (var10 Heap)) (or (not (and (inv_main137 var10 var9 var8 var7 var6 var5 var4 var3 var2 var1 var0) (and (is-O_Addr (read var10 var5)) (is-O_Addr (read var10 var5))))) (inv_main138 (write var10 var5 (O_Addr var0)) var9 var8 var7 var6 var5 var4 var3 var2 var1 var0))))
(assert (forall ((var0 Addr) (var1 Addr) (var2 Addr) (var3 Addr) (var4 Heap)) (or (not (and (inv_main114 var4 var3 var2 var1 var0) (is-O_list (read var4 var2)))) (inv_main120 (newHeap (alloc var4 (O_Addr (slist (getlist (read var4 var2)))))) var3 var2 var1 var0))))
(assert (forall ((var0 Addr) (var1 Addr) (var2 Int) (var3 Int) (var4 Addr) (var5 Addr) (var6 Addr) (var7 Addr) (var8 Addr) (var9 Addr) (var10 Addr) (var11 Heap) (var12 Addr) (var13 Int) (var14 Int) (var15 Addr) (var16 Addr) (var17 Addr) (var18 Addr) (var19 Addr) (var20 Addr) (var21 Addr) (var22 Heap)) (or (not (and (inv_main134 var22 var21 var20 var19 var18 var17 var16 var15 var14 var13 var12) (and (is-O_node (read var22 var12)) (and (and (and (and (and (and (and (and (and (and (and (= var11 var22) (= var10 var21)) (= var9 var20)) (= var8 var19)) (= var7 var18)) (= var6 var17)) (= var5 var16)) (= var4 var15)) (= var3 var14)) (= var2 var13)) (= var1 var12)) (= var0 (next (getnode (read var22 var12)))))))) (inv_main135 var11 var10 var9 var8 var7 var6 var0 var4 var3 var2 var1))))
(assert (forall ((var0 Addr) (var1 Addr) (var2 Heap) (var3 Addr) (var4 Addr) (var5 Addr) (var6 Addr) (var7 Addr) (var8 Heap) (var9 Addr) (var10 Addr) (var11 Addr) (var12 Addr) (var13 Addr) (var14 Heap)) (or (not (and (inv_main152 var14 var13 var12 var11 var10) (and (and (not (= var9 nullAddr)) (and (is-O_list (read var14 var10)) (and (and (and (and (and (= var8 var14) (= var7 var13)) (= var6 var12)) (= var5 var11)) (= var4 var10)) (= var3 (next (getlist (read var14 var10))))))) (and (and (and (= var2 (write var8 var4 defObj)) (= var1 var7)) (= var9 var3)) (= var0 var5))))) (inv_main112 var2 var1 var9 var0))))
(assert (forall ((var0 Addr) (var1 Addr) (var2 Heap) (var3 Addr) (var4 Addr) (var5 Heap)) (or (not (and (inv_main23 var5 var4) (and (and (not (= var3 nullAddr)) (and (and (and (= var2 var5) (= var1 var4)) (= var3 var4)) (= var0 nullAddr))) (and (is-O_list (read var5 var4)) (not (= (next (getlist (read var5 var4))) nullAddr)))))) (inv_main112 var2 var1 var3 var0))))
(assert (forall ((var0 Addr) (var1 Addr) (var2 Heap) (var3 Addr) (var4 Addr) (var5 Addr) (var6 Heap)) (or (not (and (inv_main72 var6 var5 var4) (and (and (not (= var3 nullAddr)) (is-O_list (read var6 var4))) (and (and (and (= var2 var6) (= var1 var5)) (= var0 var4)) (= var3 (next (getlist (read var6 var4)))))))) (inv_main85 var2 var1 var0))))
(assert (forall ((var0 Addr) (var1 Addr) (var2 Heap)) (or (not (and (inv_main36 var2 var1 var0) (and (= var0 nullAddr) (and (is-O_list (read var2 var0)) (= (next (getlist (read var2 var0))) nullAddr))))) (inv_main76 var2 var1 var0))))
(assert (forall ((var0 Addr) (var1 Addr) (var2 Addr) (var3 Heap)) (or (not (and (inv_main15 var3 var2 var1 var0) (and (is-O_list (read var3 var0)) (is-O_list (read var3 var0))))) (inv_main18 (write var3 var0 (O_list (list var1 (next (getlist (read var3 var0)))))) var2 var1 var0))))
(assert (forall ((var0 Addr) (var1 Addr) (var2 Heap)) (or (not (and (inv_main47 var2 var1 var0) (and (is-O_list (read var2 var0)) (not (= (slist (getlist (read var2 var0))) nullAddr))))) (inv_main55 var2 var1 var0))))
(assert (forall ((var0 Addr) (var1 Addr) (var2 Addr) (var3 Addr) (var4 Heap) (var5 Addr) (var6 Addr) (var7 Addr) (var8 Heap)) (or (not (and (inv_main185 var8 var7 var6 var5) (and (is-O_list (read var8 var6)) (and (and (and (and (= var4 var8) (= var3 var7)) (= var2 var6)) (= var1 var5)) (= var0 (slist (getlist (read var8 var6)))))))) (inv_main187 var4 var3 var2 var0))))
(assert (forall ((var0 Addr) (var1 Addr) (var2 Addr) (var3 Addr) (var4 Heap) (var5 Addr) (var6 Addr) (var7 Addr) (var8 Heap)) (or (not (and (inv_main189 var8 var7 var6 var5) (and (is-O_node (read var8 var5)) (and (and (and (and (= var4 var8) (= var3 var7)) (= var2 var6)) (= var1 var5)) (= var0 (next (getnode (read var8 var5)))))))) (inv_main187 var4 var3 var2 var0))))
(assert (forall ((var0 Addr) (var1 Addr) (var2 Heap)) (or (not (and (inv_main36 var2 var1 var0) (and (= var0 nullAddr) (and (is-O_list (read var2 var0)) (not (= (next (getlist (read var2 var0))) nullAddr)))))) (inv_main43 var2 var1 var0))))
(assert (forall ((var0 Addr) (var1 Addr) (var2 Heap) (var3 Addr) (var4 Addr) (var5 Addr) (var6 Heap) (var7 Addr) (var8 Addr) (var9 Addr) (var10 Heap)) (or (not (and (inv_main202 var10 var9 var8) (and (not (= var7 nullAddr)) (and (and (is-O_node (read var10 var8)) (and (and (and (= var6 var10) (= var5 var9)) (= var4 var8)) (= var3 (next (getnode (read var10 var8)))))) (and (and (and (= var2 (write var6 var4 defObj)) (= var1 var5)) (= var0 var4)) (= var7 var3)))))) (inv_main202 var2 var1 var7))))
(assert (forall ((var0 Addr) (var1 Heap) (var2 Addr) (var3 Addr) (var4 Heap) (var5 Addr) (var6 Addr) (var7 Heap)) (or (not (and (inv_main155 var7 var6) (and (and (not (= var5 nullAddr)) (and (is-O_list (read var7 var6)) (and (and (= var4 var7) (= var3 var6)) (= var2 (slist (getlist (read var7 var6))))))) (and (and (= var1 (write var4 var3 defObj)) (= var0 var3)) (= var5 var2))))) (inv_main202 var1 var0 var5))))
(assert (forall ((var0 Addr) (var1 Addr) (var2 Addr) (var3 Heap)) (or (not (and (inv_main187 var3 var2 var1 var0) (and (is-O_node (read var3 var0)) (= (next (getnode (read var3 var0))) nullAddr)))) (inv_main186 var3 var2 var1 var0))))
(assert (forall ((var0 Addr) (var1 Addr) (var2 Heap)) (or (not (and (inv_main36 var2 var1 var0) (and (not (= var0 nullAddr)) (and (is-O_list (read var2 var0)) (= (next (getlist (read var2 var0))) nullAddr))))) (inv_main72 var2 var1 var0))))
(assert (forall ((var0 Addr) (var1 Addr) (var2 Heap)) (or (not (and (inv_main80 var2 var1 var0) (and (is-O_list (read var2 var0)) (not (= (slist (getlist (read var2 var0))) nullAddr))))) (inv_main89 var2 var1 var0))))
(assert (forall ((var0 Addr) (var1 Addr) (var2 Heap)) (or (not (and (inv_main80 var2 var1 var0) (and (is-O_list (read var2 var0)) (= (slist (getlist (read var2 var0))) nullAddr)))) (inv_main93 var2 var1 var0))))
(assert (forall ((var0 Addr) (var1 Int) (var2 Int) (var3 Addr) (var4 Addr) (var5 Addr) (var6 Addr) (var7 Addr) (var8 Addr) (var9 Addr) (var10 Heap)) (or (not (and (inv_main147 var10 var9 var8 var7 var6 var5 var4 var3 var2 var1 var0) (and (is-O_Addr (read var10 var5)) (is-O_Addr (read var10 var5))))) (inv_main148 (write var10 var5 (O_Addr var0)) var9 var8 var7 var6 var5 var4 var3 var2 var1 var0))))
(assert (forall ((var0 Addr) (var1 Addr) (var2 Addr) (var3 Addr) (var4 Heap)) (or (not (and (inv_main120 var4 var3 var2 var1 var0) (and (and (is-O_list (read var4 var2)) (is-O_list (read var4 var2))) (is-O_list (read var4 var0))))) (inv_main121 var4 var3 var2 var1 var0 (newAddr (alloc var4 (O_Addr (slist (getlist (read var4 var2)))))) (slist (getlist (read var4 var2))) (slist (getlist (read var4 var0)))))))
(assert (forall ((var0 Addr) (var1 Addr) (var2 Int) (var3 Int) (var4 Int) (var5 Int) (var6 Addr) (var7 Addr) (var8 Addr) (var9 Addr) (var10 Addr) (var11 Addr) (var12 Addr) (var13 Addr) (var14 Addr) (var15 Addr) (var16 Addr) (var17 Addr) (var18 Addr) (var19 Addr) (var20 Heap) (var21 Addr) (var22 Heap) (var23 Addr) (var24 Int) (var25 Int) (var26 Addr) (var27 Addr) (var28 Addr) (var29 Addr) (var30 Addr) (var31 Addr) (var32 Addr) (var33 Heap)) (or (not (and (inv_main138 var33 var32 var31 var30 var29 var28 var27 var26 var25 var24 var23) (and (and (and (is-O_node (read var22 var21)) (and (and (and (and (and (and (and (and (and (and (and (= var20 var22) (= var19 var18)) (= var17 var16)) (= var15 var14)) (= var13 var12)) (= var11 var10)) (= var9 var8)) (= var7 var6)) (= var5 var4)) (= var3 var2)) (= var1 var21)) (= var0 (newAddr (alloc var22 (O_Addr (next (getnode (read var22 var21))))))))) (is-O_node (read var33 var23))) (and (and (and (and (and (and (and (and (and (and (= var22 (newHeap (alloc var33 (O_Addr (next (getnode (read var33 var23))))))) (= var18 var32)) (= var16 var31)) (= var14 var30)) (= var12 var29)) (= var10 var28)) (= var8 var27)) (= var6 var26)) (= var4 var25)) (= var2 var24)) (= var21 var23))))) (inv_main121 var20 var19 var17 var15 var13 var0 var9 var7))))
(assert (forall ((var0 Addr) (var1 Addr) (var2 Int) (var3 Int) (var4 Int) (var5 Int) (var6 Addr) (var7 Addr) (var8 Addr) (var9 Addr) (var10 Addr) (var11 Addr) (var12 Addr) (var13 Addr) (var14 Addr) (var15 Addr) (var16 Addr) (var17 Addr) (var18 Addr) (var19 Addr) (var20 Heap) (var21 Addr) (var22 Heap) (var23 Addr) (var24 Int) (var25 Int) (var26 Addr) (var27 Addr) (var28 Addr) (var29 Addr) (var30 Addr) (var31 Addr) (var32 Addr) (var33 Heap)) (or (not (and (inv_main148 var33 var32 var31 var30 var29 var28 var27 var26 var25 var24 var23) (and (and (and (is-O_node (read var22 var21)) (and (and (and (and (and (and (and (and (and (and (and (= var20 var22) (= var19 var18)) (= var17 var16)) (= var15 var14)) (= var13 var12)) (= var11 var10)) (= var9 var8)) (= var7 var6)) (= var5 var4)) (= var3 var2)) (= var1 var21)) (= var0 (newAddr (alloc var22 (O_Addr (next (getnode (read var22 var21))))))))) (is-O_node (read var33 var23))) (and (and (and (and (and (and (and (and (and (and (= var22 (newHeap (alloc var33 (O_Addr (next (getnode (read var33 var23))))))) (= var18 var32)) (= var16 var31)) (= var14 var30)) (= var12 var29)) (= var10 var28)) (= var8 var27)) (= var6 var26)) (= var4 var25)) (= var2 var24)) (= var21 var23))))) (inv_main121 var20 var19 var17 var15 var13 var0 var9 var7))))
(assert (forall ((var0 Addr) (var1 Addr) (var2 Heap) (var3 Addr) (var4 Addr) (var5 Addr) (var6 Heap)) (or (not (and (inv_main72 var6 var5 var4) (and (and (= var3 nullAddr) (is-O_list (read var6 var4))) (and (and (and (= var2 var6) (= var1 var5)) (= var0 var4)) (= var3 (next (getlist (read var6 var4)))))))) (inv_main80 var2 var1 var0))))
(assert (forall ((var0 Addr) (var1 Addr) (var2 Heap) (var3 Addr) (var4 Addr) (var5 Heap)) (or (not (and (inv_main8 var5 var4 var3) (and (and (is-O_node (read var5 var3)) (is-O_node (read var5 var3))) (and (and (= var2 (write var5 var3 (O_node (node var3 (value (getnode (read var5 var3))))))) (= var1 var4)) (= var0 var3))))) (inv_main13 var2 var1 var0))))
(assert (forall ((var0 Addr) (var1 Heap)) (or (not (and (inv_main23 var1 var0) (and (not (= var0 nullAddr)) (and (is-O_list (read var1 var0)) (= (next (getlist (read var1 var0))) nullAddr))))) (inv_main159 var1 var0 var0))))
(assert (forall ((var0 Addr) (var1 Addr) (var2 Addr) (var3 Heap) (var4 Addr) (var5 Addr) (var6 Addr) (var7 Addr) (var8 Heap)) (or (not (and (inv_main112 var8 var7 var6 var5) (and (and (not (= var4 nullAddr)) (is-O_list (read var8 var6))) (and (and (and (and (= var3 var8) (= var2 var7)) (= var1 var6)) (= var0 var5)) (= var4 (next (getlist (read var8 var6)))))))) (inv_main114 var3 var2 var1 var0 var4))))
(assert (forall ((var0 Addr) (var1 Addr) (var2 Addr) (var3 Addr) (var4 Addr) (var5 Addr) (var6 Addr) (var7 Heap)) (or (not (and (inv_main124 var7 var6 var5 var4 var3 var2 var1 var0) (= var0 nullAddr))) (inv_main130 var7 var6 var5 var4 var3 var2 var1 var0 1))))
(assert (forall ((var0 Addr) (var1 Addr) (var2 Addr) (var3 Addr) (var4 Addr) (var5 Addr) (var6 Addr) (var7 Heap)) (or (not (and (inv_main124 var7 var6 var5 var4 var3 var2 var1 var0) (and (not (= var0 nullAddr)) (= var1 nullAddr)))) (inv_main130 var7 var6 var5 var4 var3 var2 var1 var0 0))))
(assert (forall ((var0 Int) (var1 Addr) (var2 Addr) (var3 Addr) (var4 Addr) (var5 Addr) (var6 Addr) (var7 Addr) (var8 Heap) (var9 Int) (var10 Addr) (var11 Addr) (var12 Addr) (var13 Addr) (var14 Addr) (var15 Addr) (var16 Addr) (var17 Heap)) (or (not (and (inv_main127 var17 var16 var15 var14 var13 var12 var11 var10 var9) (and (is-O_node (read var17 var10)) (and (and (and (and (and (and (and (and (= var8 var17) (= var7 var16)) (= var6 var15)) (= var5 var14)) (= var4 var13)) (= var3 var12)) (= var2 var11)) (= var1 var10)) (or (and (<= 0 (+ (+ (value (getnode (read var17 var10))) (* (- 1) var9)) (- 1))) (= var0 1)) (and (not (<= 0 (+ (+ (value (getnode (read var17 var10))) (* (- 1) var9)) (- 1)))) (= var0 0))))))) (inv_main130 var8 var7 var6 var5 var4 var3 var2 var1 var0))))
(assert (forall ((var0 Addr) (var1 Addr) (var2 Addr) (var3 Heap) (var4 Addr) (var5 Addr) (var6 Addr) (var7 Addr) (var8 Heap)) (or (not (and (inv_main112 var8 var7 var6 var5) (and (and (= var4 nullAddr) (is-O_list (read var8 var6))) (and (and (and (and (= var3 var8) (= var2 var7)) (= var1 var6)) (= var0 var5)) (= var4 (next (getlist (read var8 var6)))))))) (inv_main115 var3 var2 var1 var0 var4))))
(assert (forall ((var0 Addr) (var1 Addr) (var2 Heap)) (not (and (inv_main8 var2 var1 var0) (not (is-O_node (read var2 var0)))))))
(assert (forall ((var0 Addr) (var1 Addr) (var2 Heap)) (not (and (inv_main8 var2 var1 var0) (and (is-O_node (read var2 var0)) (not (is-O_node (read var2 var0))))))))
(assert (forall ((var0 Addr) (var1 Addr) (var2 Heap)) (not (and (inv_main13 var2 var1 var0) (not (is-O_node (read var2 var0)))))))
(assert (forall ((var0 Addr) (var1 Addr) (var2 Heap)) (not (and (inv_main13 var2 var1 var0) (and (is-O_node (read var2 var0)) (not (is-O_node (read var2 var0))))))))
(assert (forall ((var0 Addr) (var1 Addr) (var2 Addr) (var3 Heap)) (not (and (inv_main15 var3 var2 var1 var0) (not (is-O_list (read var3 var0)))))))
(assert (forall ((var0 Addr) (var1 Addr) (var2 Addr) (var3 Heap)) (not (and (inv_main15 var3 var2 var1 var0) (and (is-O_list (read var3 var0)) (not (is-O_list (read var3 var0))))))))
(assert (forall ((var0 Addr) (var1 Addr) (var2 Addr) (var3 Heap)) (not (and (inv_main18 var3 var2 var1 var0) (not (is-O_list (read var3 var0)))))))
(assert (forall ((var0 Addr) (var1 Addr) (var2 Addr) (var3 Heap)) (not (and (inv_main18 var3 var2 var1 var0) (and (is-O_list (read var3 var0)) (not (is-O_list (read var3 var0))))))))
(assert (forall ((var0 Addr) (var1 Addr) (var2 Heap)) (not (inv_main31 var2 var1 var0))))
(assert (forall ((var0 Addr) (var1 Addr) (var2 Heap)) (not (and (inv_main36 var2 var1 var0) (not (is-O_list (read var2 var0)))))))
(assert (forall ((var0 Addr) (var1 Addr) (var2 Heap)) (not (inv_main43 var2 var1 var0))))
(assert (forall ((var0 Addr) (var1 Addr) (var2 Heap)) (not (and (inv_main39 var2 var1 var0) (not (is-O_list (read var2 var0)))))))
(assert (forall ((var0 Addr) (var1 Addr) (var2 Heap)) (not (inv_main51 var2 var1 var0))))
(assert (forall ((var0 Addr) (var1 Addr) (var2 Heap)) (not (and (inv_main47 var2 var1 var0) (not (is-O_list (read var2 var0)))))))
(assert (forall ((var0 Addr) (var1 Addr) (var2 Heap)) (not (inv_main59 var2 var1 var0))))
(assert (forall ((var0 Addr) (var1 Addr) (var2 Heap)) (not (and (inv_main55 var2 var1 var0) (not (is-O_list (read var2 var0)))))))
(assert (forall ((var0 Addr) (var1 Addr) (var2 Heap)) (not (and (inv_main55 var2 var1 var0) (and (is-O_list (read var2 var0)) (not (is-O_node (read var2 (slist (getlist (read var2 var0)))))))))))
(assert (forall ((var0 Addr) (var1 Addr) (var2 Heap)) (not (inv_main67 var2 var1 var0))))
(assert (forall ((var0 Addr) (var1 Addr) (var2 Heap)) (not (and (inv_main38 var2 var1 var0) (not (is-O_list (read var2 var0)))))))
(assert (forall ((var0 Addr) (var1 Addr) (var2 Heap)) (not (inv_main76 var2 var1 var0))))
(assert (forall ((var0 Addr) (var1 Addr) (var2 Heap)) (not (and (inv_main72 var2 var1 var0) (not (is-O_list (read var2 var0)))))))
(assert (forall ((var0 Addr) (var1 Addr) (var2 Heap)) (not (inv_main85 var2 var1 var0))))
(assert (forall ((var0 Addr) (var1 Addr) (var2 Heap)) (not (and (inv_main80 var2 var1 var0) (not (is-O_list (read var2 var0)))))))
(assert (forall ((var0 Addr) (var1 Addr) (var2 Heap)) (not (inv_main93 var2 var1 var0))))
(assert (forall ((var0 Addr) (var1 Addr) (var2 Heap)) (not (and (inv_main89 var2 var1 var0) (not (is-O_list (read var2 var0)))))))
(assert (forall ((var0 Addr) (var1 Addr) (var2 Heap)) (not (and (inv_main89 var2 var1 var0) (and (is-O_list (read var2 var0)) (not (is-O_node (read var2 (slist (getlist (read var2 var0)))))))))))
(assert (forall ((var0 Addr) (var1 Addr) (var2 Heap)) (not (inv_main101 var2 var1 var0))))
(assert (forall ((var0 Addr) (var1 Heap)) (not (and (inv_main23 var1 var0) (not (is-O_list (read var1 var0)))))))
(assert (forall ((var0 Addr) (var1 Addr) (var2 Addr) (var3 Heap)) (not (and (inv_main112 var3 var2 var1 var0) (not (is-O_list (read var3 var1)))))))
(assert (forall ((var0 Addr) (var1 Addr) (var2 Addr) (var3 Addr) (var4 Heap)) (not (and (inv_main115 var4 var3 var2 var1 var0) (not (is-O_list (read var4 var2)))))))
(assert (forall ((var0 Addr) (var1 Addr) (var2 Addr) (var3 Addr) (var4 Heap)) (not (and (inv_main115 var4 var3 var2 var1 var0) (and (is-O_list (read var4 var2)) (not (is-O_list (read var4 var2))))))))
(assert (forall ((var0 Addr) (var1 Addr) (var2 Addr) (var3 Addr) (var4 Heap)) (not (and (inv_main114 var4 var3 var2 var1 var0) (not (is-O_list (read var4 var2)))))))
(assert (forall ((var0 Addr) (var1 Addr) (var2 Addr) (var3 Addr) (var4 Heap)) (not (and (inv_main120 var4 var3 var2 var1 var0) (and (is-O_list (read var4 var2)) (not (is-O_list (read var4 var2))))))))
(assert (forall ((var0 Addr) (var1 Addr) (var2 Addr) (var3 Addr) (var4 Heap)) (not (and (inv_main120 var4 var3 var2 var1 var0) (and (and (is-O_list (read var4 var2)) (is-O_list (read var4 var2))) (not (is-O_list (read var4 var0))))))))
(assert (forall ((var0 Addr) (var1 Addr) (var2 Addr) (var3 Addr) (var4 Addr) (var5 Addr) (var6 Addr) (var7 Heap)) (not (and (inv_main124 var7 var6 var5 var4 var3 var2 var1 var0) (and (and (not (= var0 nullAddr)) (not (= var1 nullAddr))) (not (is-O_node (read var7 var1))))))))
(assert (forall ((var0 Int) (var1 Addr) (var2 Addr) (var3 Addr) (var4 Addr) (var5 Addr) (var6 Addr) (var7 Addr) (var8 Heap)) (not (and (inv_main127 var8 var7 var6 var5 var4 var3 var2 var1 var0) (not (is-O_node (read var8 var1)))))))
(assert (forall ((var0 Addr) (var1 Int) (var2 Int) (var3 Addr) (var4 Addr) (var5 Addr) (var6 Addr) (var7 Addr) (var8 Addr) (var9 Addr) (var10 Heap)) (not (and (inv_main134 var10 var9 var8 var7 var6 var5 var4 var3 var2 var1 var0) (not (is-O_node (read var10 var0)))))))
(assert (forall ((var0 Addr) (var1 Int) (var2 Int) (var3 Addr) (var4 Addr) (var5 Addr) (var6 Addr) (var7 Addr) (var8 Addr) (var9 Addr) (var10 Heap)) (not (and (inv_main135 var10 var9 var8 var7 var6 var5 var4 var3 var2 var1 var0) (not (is-O_node (read var10 var0)))))))
(assert (forall ((var0 Addr) (var1 Int) (var2 Int) (var3 Addr) (var4 Addr) (var5 Addr) (var6 Addr) (var7 Addr) (var8 Addr) (var9 Addr) (var10 Heap)) (not (and (inv_main135 var10 var9 var8 var7 var6 var5 var4 var3 var2 var1 var0) (and (is-O_node (read var10 var0)) (not (is-O_node (read var10 var0))))))))
(assert (forall ((var0 Addr) (var1 Int) (var2 Int) (var3 Addr) (var4 Addr) (var5 Addr) (var6 Addr) (var7 Addr) (var8 Addr) (var9 Addr) (var10 Heap)) (not (and (inv_main137 var10 var9 var8 var7 var6 var5 var4 var3 var2 var1 var0) (not (is-O_Addr (read var10 var5)))))))
(assert (forall ((var0 Addr) (var1 Int) (var2 Int) (var3 Addr) (var4 Addr) (var5 Addr) (var6 Addr) (var7 Addr) (var8 Addr) (var9 Addr) (var10 Heap)) (not (and (inv_main137 var10 var9 var8 var7 var6 var5 var4 var3 var2 var1 var0) (and (is-O_Addr (read var10 var5)) (not (is-O_Addr (read var10 var5))))))))
(assert (forall ((var0 Addr) (var1 Int) (var2 Int) (var3 Addr) (var4 Addr) (var5 Addr) (var6 Addr) (var7 Addr) (var8 Addr) (var9 Addr) (var10 Heap)) (not (and (inv_main138 var10 var9 var8 var7 var6 var5 var4 var3 var2 var1 var0) (not (is-O_node (read var10 var0)))))))
(assert (forall ((var0 Addr) (var1 Int) (var2 Int) (var3 Addr) (var4 Addr) (var5 Addr) (var6 Addr) (var7 Addr) (var8 Addr) (var9 Addr) (var10 Heap)) (not (and (inv_main144 var10 var9 var8 var7 var6 var5 var4 var3 var2 var1 var0) (not (is-O_node (read var10 var0)))))))
(assert (forall ((var0 Addr) (var1 Int) (var2 Int) (var3 Addr) (var4 Addr) (var5 Addr) (var6 Addr) (var7 Addr) (var8 Addr) (var9 Addr) (var10 Heap)) (not (and (inv_main145 var10 var9 var8 var7 var6 var5 var4 var3 var2 var1 var0) (not (is-O_node (read var10 var0)))))))
(assert (forall ((var0 Addr) (var1 Int) (var2 Int) (var3 Addr) (var4 Addr) (var5 Addr) (var6 Addr) (var7 Addr) (var8 Addr) (var9 Addr) (var10 Heap)) (not (and (inv_main145 var10 var9 var8 var7 var6 var5 var4 var3 var2 var1 var0) (and (is-O_node (read var10 var0)) (not (is-O_node (read var10 var0))))))))
(assert (forall ((var0 Addr) (var1 Int) (var2 Int) (var3 Addr) (var4 Addr) (var5 Addr) (var6 Addr) (var7 Addr) (var8 Addr) (var9 Addr) (var10 Heap)) (not (and (inv_main147 var10 var9 var8 var7 var6 var5 var4 var3 var2 var1 var0) (not (is-O_Addr (read var10 var5)))))))
(assert (forall ((var0 Addr) (var1 Int) (var2 Int) (var3 Addr) (var4 Addr) (var5 Addr) (var6 Addr) (var7 Addr) (var8 Addr) (var9 Addr) (var10 Heap)) (not (and (inv_main147 var10 var9 var8 var7 var6 var5 var4 var3 var2 var1 var0) (and (is-O_Addr (read var10 var5)) (not (is-O_Addr (read var10 var5))))))))
(assert (forall ((var0 Addr) (var1 Int) (var2 Int) (var3 Addr) (var4 Addr) (var5 Addr) (var6 Addr) (var7 Addr) (var8 Addr) (var9 Addr) (var10 Heap)) (not (and (inv_main148 var10 var9 var8 var7 var6 var5 var4 var3 var2 var1 var0) (not (is-O_node (read var10 var0)))))))
(assert (forall ((var0 Addr) (var1 Addr) (var2 Addr) (var3 Addr) (var4 Heap)) (not (and (inv_main119 var4 var3 var2 var1 var0) (not (is-O_list (read var4 var2)))))))
(assert (forall ((var0 Addr) (var1 Addr) (var2 Addr) (var3 Addr) (var4 Heap)) (not (and (inv_main119 var4 var3 var2 var1 var0) (and (is-O_list (read var4 var2)) (not (is-O_list (read var4 var2))))))))
(assert (forall ((var0 Addr) (var1 Addr) (var2 Addr) (var3 Addr) (var4 Heap)) (not (and (inv_main152 var4 var3 var2 var1 var0) (not (is-O_list (read var4 var0)))))))
(assert (forall ((var0 Addr) (var1 Addr) (var2 Heap)) (not (inv_main163 var2 var1 var0))))
(assert (forall ((var0 Addr) (var1 Addr) (var2 Heap)) (not (and (inv_main159 var2 var1 var0) (not (is-O_list (read var2 var0)))))))
(assert (forall ((var0 Addr) (var1 Addr) (var2 Heap)) (not (inv_main172 var2 var1 var0))))
(assert (forall ((var0 Addr) (var1 Addr) (var2 Heap)) (not (and (inv_main167 var2 var1 var0) (not (is-O_list (read var2 var0)))))))
(assert (forall ((var0 Addr) (var1 Addr) (var2 Heap)) (not (inv_main181 var2 var1 var0))))
(assert (forall ((var0 Addr) (var1 Addr) (var2 Addr) (var3 Heap)) (not (and (inv_main185 var3 var2 var1 var0) (not (is-O_list (read var3 var1)))))))
(assert (forall ((var0 Addr) (var1 Addr) (var2 Addr) (var3 Heap)) (not (and (inv_main187 var3 var2 var1 var0) (not (is-O_node (read var3 var0)))))))
(assert (forall ((var0 Addr) (var1 Addr) (var2 Addr) (var3 Heap)) (not (and (inv_main189 var3 var2 var1 var0) (not (is-O_node (read var3 var0)))))))
(assert (forall ((var0 Addr) (var1 Addr) (var2 Addr) (var3 Heap)) (not (and (inv_main186 var3 var2 var1 var0) (not (is-O_node (read var3 var0)))))))
(assert (forall ((var0 Addr) (var1 Addr) (var2 Addr) (var3 Heap)) (not (inv_main195 var3 var2 var1 var0))))
(assert (forall ((var0 Addr) (var1 Heap)) (not (and (inv_main155 var1 var0) (not (is-O_list (read var1 var0)))))))
(assert (forall ((var0 Addr) (var1 Addr) (var2 Heap)) (not (and (inv_main202 var2 var1 var0) (not (is-O_node (read var2 var0)))))))
(check-sat)
